\ENCODING=ISO-8859-1
\Problem name: ilog.cplex

Minimize
 obj1: 108404 x1 + 105078 x2 + 93352 x3 + 107624 x4 + 95490 x5 + 94326 x6
       + 91666 x7 + 97493 x8 + 96466 x9 + 91565 x10 + 91573 x11 + 100491 x12
       + 102003 x13 + 92982 x14 + 107845 x15 + 104189 x16 + 105828 x17
       + 102025 x18 + 105230 x19 + 100891 x20 + 100523 x21 + 91405 x22
       + 99937 x23 + 98956 x24 + 108673 x25 + 108531 x26 + 109558 x27
       + 90944 x28 + 97099 x29 + 104128 x30 + 95462 x31 + 90609 x32 + 92113 x33
       + 102260 x34 + 109643 x35 + 99564 x36 + 104507 x37 + 94062 x38
       + 96622 x39 + 108806 x40 + 104415 x41 + 107175 x42 + 90258 x43
       + 100319 x44 + 98271 x45 + 98250 x46 + 105169 x47 + 109632 x48
       + 92702 x49 + 96784 x50 + 92964 x51 + 101457 x52 + 103566 x53
       + 95194 x54 + 94586 x55 + 97439 x56 + 102209 x57 + 92200 x58 + 91827 x59
       + 97562 x60 + 94916 x61 + 92172 x62 + 104684 x63 + 104060 x64
       + 97274 x65 + 101017 x66 + 94130 x67 + 108534 x68 + 98340 x69
       + 108429 x70 + 90894 x71 + 96926 x72 + 106552 x73 + 92972 x74
       + 97250 x75 + 102292 x76 + 99949 x77 + 97804 x78 + 94027 x79 + 97240 x80
       + 91905 x81 + 97353 x82 + 102224 x83 + 102193 x84 + 104404 x85
       + 94359 x86 + 109067 x87 + 94771 x88 + 93066 x89 + 92820 x90
       + 108604 x91 + 107104 x92 + 91282 x93 + 92596 x94 + 95337 x95
       + 95908 x96 + 99552 x97 + 92191 x98 + 103542 x99 + 98706 x100
       + 100568 x101 + 107675 x102 + 104561 x103 + 108886 x104 + 90561 x105
       + 97766 x106 + 99744 x107 + 92081 x108 + 103080 x109 + 107738 x110
       + 97639 x111 + 106920 x112 + 102673 x113 + 108167 x114 + 100615 x115
       + 104226 x116 + 102792 x117 + 108405 x118 + 108336 x119 + 100566 x120
       + 94340 x121 + 103011 x122 + 104536 x123 + 97091 x124 + 95643 x125
       + 104770 x126 + 106789 x127 + 95277 x128 + 94712 x129 + 93348 x130
       + 99322 x131 + 103144 x132 + 98035 x133 + 97240 x134 + 103173 x135
       + 105366 x136 + 96028 x137 + 99454 x138 + 95788 x139 + 108193 x140
       + 91716 x141 + 106986 x142 + 106238 x143 + 94577 x144 + 95933 x145
       + 102454 x146 + 100798 x147 + 109771 x148 + 101309 x149 + 107418 x150
       + 102277 x151 + 97788 x152 + 104677 x153 + 100046 x154 + 96615 x155
       + 107566 x156 + 95518 x157 + 98549 x158 + 91124 x159 + 91772 x160
       + 106667 x161 + 106222 x162 + 100119 x163 + 90860 x164 + 92763 x165
       + 93933 x166 + 105783 x167 + 90360 x168 + 101760 x169 + 91544 x170
       + 94746 x171 + 100320 x172 + 95334 x173 + 91029 x174 + 104198 x175
       + 92397 x176 + 95114 x177 + 90948 x178 + 105236 x179 + 102315 x180
       + 103229 x181 + 109445 x182 + 91025 x183 + 90255 x184 + 98991 x185
       + 105227 x186 + 106434 x187 + 90014 x188 + 95410 x189 + 98498 x190
       + 93717 x191 + 92985 x192 + 102280 x193 + 104841 x194 + 104357 x195
       + 100464 x196 + 99319 x197 + 105564 x198 + 98411 x199 + 94748 x200
       + 105066 x201 + 93616 x202 + 109127 x203 + 100542 x204 + 99423 x205
       + 95888 x206 + 109346 x207 + 101749 x208 + 107699 x209 + 96964 x210
       + 94522 x211 + 94818 x212 + 96848 x213 + 96770 x214 + 100324 x215
       + 100010 x216 + 103071 x217 + 92549 x218 + 91572 x219 + 92740 x220
       + 104003 x221 + 104210 x222 + 93648 x223 + 98582 x224 + 108448 x225
       + 101320 x226 + 107531 x227 + 97568 x228 + 101922 x229 + 99909 x230
       + 95262 x231 + 106101 x232 + 97257 x233 + 97689 x234 + 103914 x235
       + 108078 x236 + 96057 x237 + 107465 x238 + 93030 x239 + 90779 x240
       + 105603 x241 + 91207 x242 + 101589 x243 + 90115 x244 + 98902 x245
       + 100847 x246 + 108994 x247 + 97382 x248 + 104006 x249 + 91290 x250
       + 109158 x251 + 90415 x252 + 91904 x253 + 107990 x254 + 101420 x255
       + 101699 x256 + 105139 x257 + 94674 x258 + 105957 x259 + 97997 x260
       + 107121 x261 + 107866 x262 + 102106 x263 + 91517 x264 + 107390 x265
       + 100745 x266 + 97915 x267 + 97494 x268 + 92267 x269 + 104534 x270
       + 108817 x271 + 98302 x272 + 99879 x273 + 108436 x274 + 100674 x275
       + 107413 x276 + 108747 x277 + 97559 x278 + 100443 x279 + 95238 x280
       + 99890 x281 + 92418 x282 + 96318 x283 + 103306 x284 + 103856 x285
       + 103232 x286 + 98432 x287 + 93257 x288 + 96117 x289 + 107643 x290
       + 91093 x291 + 92758 x292 + 96960 x293 + 101371 x294 + 97992 x295
       + 91726 x296 + 105295 x297 + 97956 x298 + 102934 x299 + 196677 x300
       + 197760 x301 + 190484 x302 + 194258 x303 + 196974 x304 + 197398 x305
       + 194190 x306 + 205857 x307 + 195092 x308 + 203065 x309 + 195196 x310
       + 182762 x311 + 187448 x312 + 200215 x313 + 214324 x314 + 207243 x315
       + 205029 x316 + 212216 x317 + 215895 x318 + 193534 x319 + 187500 x320
       + 181363 x321 + 209464 x322 + 189342 x323 + 192182 x324 + 203875 x325
       + 214572 x326 + 209085 x327 + 190760 x328 + 202475 x329 + 180980 x330
       + 209163 x331 + 219000 x332 + 217047 x333 + 198440 x334 + 204370 x335
       + 203241 x336 + 184501 x337 + 215411 x338 + 207096 x339 + 209647 x340
       + 203446 x341 + 215218 x342 + 207245 x343 + 188195 x344 + 197387 x345
       + 211041 x346 + 200841 x347 + 193084 x348 + 202098 x349 + 197666 x350
       + 199099 x351 + 194729 x352 + 208485 x353 + 218337 x354 + 207237 x355
       + 195762 x356 + 191666 x357 + 209109 x358 + 193639 x359 + 147262 x360
Subject To
 c1:   - x13 + x16 + x18 + x20 - x22 + x30 + x56  = 0
 c2:   - x73 + x76 + x78 + x80 - x82 + x90 + x116  = 0
 c3:   - x133 + x136 + x138 + x140 - x142 + x150 + x176  = 0
 c4:   - x193 + x196 + x198 + x200 - x202 + x210 + x236  = 0
 c5:   - x253 + x256 + x258 + x260 - x262 + x270 + x296  = 1
 c6:   - x2 - x8 - x11 - x14 - x20 + x22 + x36 + x45 - x49 - x50 + x57  = 1
 c7:   - x62 - x68 - x71 - x74 - x80 + x82 + x96 + x105 - x109 - x110 + x117
        = 0
 c8:   - x122 - x128 - x131 - x134 - x140 + x142 + x156 + x165 - x169 - x170
       + x177  = 0
 c9:   - x182 - x188 - x191 - x194 - x200 + x202 + x216 + x225 - x229 - x230
       + x237  = 0
 c10:  - x242 - x248 - x251 - x254 - x260 + x262 + x276 + x285 - x289 - x290
       + x297  = 0
 c11:  - x16 + x17 + x32 - x40 - x41 + x42 + x55  = 0
 c12:  - x76 + x77 + x92 - x100 - x101 + x102 + x115  = 0
 c13:  - x136 + x137 + x152 - x160 - x161 + x162 + x175  = -1
 c14:  - x196 + x197 + x212 - x220 - x221 + x222 + x235  = 0
 c15:  - x256 + x257 + x272 - x280 - x281 + x282 + x295  = 0
 c16:  x3 + x5 - x7 + x13 - x23 + x25 - x46 + x47  = -1
 c17:  x63 + x65 - x67 + x73 - x83 + x85 - x106 + x107  = 1
 c18:  x123 + x125 - x127 + x133 - x143 + x145 - x166 + x167  = 0
 c19:  x183 + x185 - x187 + x193 - x203 + x205 - x226 + x227  = 1
 c20:  x243 + x245 - x247 + x253 - x263 + x265 - x286 + x287  = 0
 c21:  x46 + x49 - x56 + x59  = 0
 c22:  x106 + x109 - x116 + x119  = 0
 c23:  x166 + x169 - x176 + x179  = 0
 c24:  x226 + x229 - x236 + x239  = 0
 c25:  x286 + x289 - x296 + x299  = 0
 c26:  - x3 - x9 + x19 + x31 - x37  = 0
 c27:  - x63 - x69 + x79 + x91 - x97  = 0
 c28:  - x123 - x129 + x139 + x151 - x157  = 0
 c29:  - x183 - x189 + x199 + x211 - x217  = 0
 c30:  - x243 - x249 + x259 + x271 - x277  = 0
 c31:  - x1 - x12 + x15 - x29 + x33 + x37 - x38 - x39 + x41 - x45  = 0
 c32:  - x61 - x72 + x75 - x89 + x93 + x97 - x98 - x99 + x101 - x105  = 0
 c33:  - x121 - x132 + x135 - x149 + x153 + x157 - x158 - x159 + x161 - x165
        = 0
 c34:  - x181 - x192 + x195 - x209 + x213 + x217 - x218 - x219 + x221 - x225
        = 0
 c35:  - x241 - x252 + x255 - x269 + x273 + x277 - x278 - x279 + x281 - x285
        = 0
 c36:  - x6 + x23 - x26 - x36 + x40 + x48 - x51 - x55 - x60  = 0
 c37:  - x66 + x83 - x86 - x96 + x100 + x108 - x111 - x115 - x120  = 0
 c38:  - x126 + x143 - x146 - x156 + x160 + x168 - x171 - x175 - x180  = 0
 c39:  - x186 + x203 - x206 - x216 + x220 + x228 - x231 - x235 - x240  = 0
 c40:  - x246 + x263 - x266 - x276 + x280 + x288 - x291 - x295 - x300  = 0
 c41:  x24 + x28 - x33 - x35 + x38 + x50 + x51 - x54  = 0
 c42:  x84 + x88 - x93 - x95 + x98 + x110 + x111 - x114  = 0
 c43:  x144 + x148 - x153 - x155 + x158 + x170 + x171 - x174  = 0
 c44:  x204 + x208 - x213 - x215 + x218 + x230 + x231 - x234  = 0
 c45:  x264 + x268 - x273 - x275 + x278 + x290 + x291 - x294  = 0
 c46:  x8 + x9 + x12 - x18 - x19 + x21 - x25 - x48 - x52 - x53  = 0
 c47:  x68 + x69 + x72 - x78 - x79 + x81 - x85 - x108 - x112 - x113  = 0
 c48:  x128 + x129 + x132 - x138 - x139 + x141 - x145 - x168 - x172 - x173  = 0
 c49:  x188 + x189 + x192 - x198 - x199 + x201 - x205 - x228 - x232 - x233  = 0
 c50:  x248 + x249 + x252 - x258 - x259 + x261 - x265 - x288 - x292 - x293
        = -1
 c51:  - x5 + x14 - x17 + x27 + x34 + x39  = 0
 c52:  - x65 + x74 - x77 + x87 + x94 + x99  = -1
 c53:  - x125 + x134 - x137 + x147 + x154 + x159  = 0
 c54:  - x185 + x194 - x197 + x207 + x214 + x219  = 0
 c55:  - x245 + x254 - x257 + x267 + x274 + x279  = 0
 c56:  x4 + x6 + x11 - x24 + x29 - x30 - x32 + x43 + x54  = 0
 c57:  x64 + x66 + x71 - x84 + x89 - x90 - x92 + x103 + x114  = 0
 c58:  x124 + x126 + x131 - x144 + x149 - x150 - x152 + x163 + x174  = 0
 c59:  x184 + x186 + x191 - x204 + x209 - x210 - x212 + x223 + x234  = -1
 c60:  x244 + x246 + x251 - x264 + x269 - x270 - x272 + x283 + x294  = 0
 c61:  x2 - x4 - x15 - x34 - x42 - x44 + x53 + x58 - x59  = 0
 c62:  x62 - x64 - x75 - x94 - x102 - x104 + x113 + x118 - x119  = 0
 c63:  x122 - x124 - x135 - x154 - x162 - x164 + x173 + x178 - x179  = 0
 c64:  x182 - x184 - x195 - x214 - x222 - x224 + x233 + x238 - x239  = 0
 c65:  x242 - x244 - x255 - x274 - x282 - x284 + x293 + x298 - x299  = 0
 c66:  x7 + x10 + x26 - x27 - x31 - x43 + x44 - x47 - x57  = 0
 c67:  x67 + x70 + x86 - x87 - x91 - x103 + x104 - x107 - x117  = 0
 c68:  x127 + x130 + x146 - x147 - x151 - x163 + x164 - x167 - x177  = 0
 c69:  x187 + x190 + x206 - x207 - x211 - x223 + x224 - x227 - x237  = 0
 c70:  x247 + x250 + x266 - x267 - x271 - x283 + x284 - x287 - x297  = 0
 c71:  x1 - x10 - x21 - x28 + x35 + x52 - x58 + x60  = 0
 c72:  x61 - x70 - x81 - x88 + x95 + x112 - x118 + x120  = 0
 c73:  x121 - x130 - x141 - x148 + x155 + x172 - x178 + x180  = 1
 c74:  x181 - x190 - x201 - x208 + x215 + x232 - x238 + x240  = 0
 c75:  x241 - x250 - x261 - x268 + x275 + x292 - x298 + x300  = 0
 c76:  4 x1 + 4 x61 + 4 x121 + 4 x181 + 4 x241 - 2 x301 <= 0
 c77:  4 x2 + 4 x62 + 4 x122 + 4 x182 + 4 x242 - 2 x302 <= 0
 c78:  4 x3 + 4 x63 + 4 x123 + 4 x183 + 4 x243 - 2 x303 <= 0
 c79:  4 x4 + 4 x64 + 4 x124 + 4 x184 + 4 x244 - 2 x304 <= 0
 c80:  4 x5 + 4 x65 + 4 x125 + 4 x185 + 4 x245 - 2 x305 <= 0
 c81:  4 x6 + 4 x66 + 4 x126 + 4 x186 + 4 x246 - 2 x306 <= 0
 c82:  4 x7 + 4 x67 + 4 x127 + 4 x187 + 4 x247 - 2 x307 <= 0
 c83:  4 x8 + 4 x68 + 4 x128 + 4 x188 + 4 x248 - 2 x308 <= 0
 c84:  4 x9 + 4 x69 + 4 x129 + 4 x189 + 4 x249 - 2 x309 <= 0
 c85:  4 x10 + 4 x70 + 4 x130 + 4 x190 + 4 x250 - 2 x310 <= 0
 c86:  4 x11 + 4 x71 + 4 x131 + 4 x191 + 4 x251 - 2 x311 <= 0
 c87:  4 x12 + 4 x72 + 4 x132 + 4 x192 + 4 x252 - 2 x312 <= 0
 c88:  4 x13 + 4 x73 + 4 x133 + 4 x193 + 4 x253 - 2 x313 <= 0
 c89:  4 x14 + 4 x74 + 4 x134 + 4 x194 + 4 x254 - 2 x314 <= 0
 c90:  4 x15 + 4 x75 + 4 x135 + 4 x195 + 4 x255 - 2 x315 <= 0
 c91:  4 x16 + 4 x76 + 4 x136 + 4 x196 + 4 x256 - 2 x316 <= 0
 c92:  4 x17 + 4 x77 + 4 x137 + 4 x197 + 4 x257 - 2 x317 <= 0
 c93:  4 x18 + 4 x78 + 4 x138 + 4 x198 + 4 x258 - 2 x318 <= 0
 c94:  4 x19 + 4 x79 + 4 x139 + 4 x199 + 4 x259 - 2 x319 <= 0
 c95:  4 x20 + 4 x80 + 4 x140 + 4 x200 + 4 x260 - 2 x320 <= 0
 c96:  4 x21 + 4 x81 + 4 x141 + 4 x201 + 4 x261 - 2 x321 <= 0
 c97:  4 x22 + 4 x82 + 4 x142 + 4 x202 + 4 x262 - 2 x322 <= 0
 c98:  4 x23 + 4 x83 + 4 x143 + 4 x203 + 4 x263 - 2 x323 <= 0
 c99:  4 x24 + 4 x84 + 4 x144 + 4 x204 + 4 x264 - 2 x324 <= 0
 c100: 4 x25 + 4 x85 + 4 x145 + 4 x205 + 4 x265 - 2 x325 <= 0
 c101: 4 x26 + 4 x86 + 4 x146 + 4 x206 + 4 x266 - 2 x326 <= 0
 c102: 4 x27 + 4 x87 + 4 x147 + 4 x207 + 4 x267 - 2 x327 <= 0
 c103: 4 x28 + 4 x88 + 4 x148 + 4 x208 + 4 x268 - 2 x328 <= 0
 c104: 4 x29 + 4 x89 + 4 x149 + 4 x209 + 4 x269 - 2 x329 <= 0
 c105: 4 x30 + 4 x90 + 4 x150 + 4 x210 + 4 x270 - 2 x330 <= 0
 c106: 4 x31 + 4 x91 + 4 x151 + 4 x211 + 4 x271 - 2 x331 <= 0
 c107: 4 x32 + 4 x92 + 4 x152 + 4 x212 + 4 x272 - 2 x332 <= 0
 c108: 4 x33 + 4 x93 + 4 x153 + 4 x213 + 4 x273 - 2 x333 <= 0
 c109: 4 x34 + 4 x94 + 4 x154 + 4 x214 + 4 x274 - 2 x334 <= 0
 c110: 4 x35 + 4 x95 + 4 x155 + 4 x215 + 4 x275 - 2 x335 <= 0
 c111: 4 x36 + 4 x96 + 4 x156 + 4 x216 + 4 x276 - 2 x336 <= 0
 c112: 4 x37 + 4 x97 + 4 x157 + 4 x217 + 4 x277 - 2 x337 <= 0
 c113: 4 x38 + 4 x98 + 4 x158 + 4 x218 + 4 x278 - 2 x338 <= 0
 c114: 4 x39 + 4 x99 + 4 x159 + 4 x219 + 4 x279 - 2 x339 <= 0
 c115: 4 x40 + 4 x100 + 4 x160 + 4 x220 + 4 x280 - 2 x340 <= 0
 c116: 4 x41 + 4 x101 + 4 x161 + 4 x221 + 4 x281 - 2 x341 <= 0
 c117: 4 x42 + 4 x102 + 4 x162 + 4 x222 + 4 x282 - 2 x342 <= 0
 c118: 4 x43 + 4 x103 + 4 x163 + 4 x223 + 4 x283 - 2 x343 <= 0
 c119: 4 x44 + 4 x104 + 4 x164 + 4 x224 + 4 x284 - 2 x344 <= 0
 c120: 4 x45 + 4 x105 + 4 x165 + 4 x225 + 4 x285 - 2 x345 <= 0
 c121: 4 x46 + 4 x106 + 4 x166 + 4 x226 + 4 x286 - 2 x346 <= 0
 c122: 4 x47 + 4 x107 + 4 x167 + 4 x227 + 4 x287 - 2 x347 <= 0
 c123: 4 x48 + 4 x108 + 4 x168 + 4 x228 + 4 x288 - 2 x348 <= 0
 c124: 4 x49 + 4 x109 + 4 x169 + 4 x229 + 4 x289 - 2 x349 <= 0
 c125: 4 x50 + 4 x110 + 4 x170 + 4 x230 + 4 x290 - 2 x350 <= 0
 c126: 4 x51 + 4 x111 + 4 x171 + 4 x231 + 4 x291 - 2 x351 <= 0
 c127: 4 x52 + 4 x112 + 4 x172 + 4 x232 + 4 x292 - 2 x352 <= 0
 c128: 4 x53 + 4 x113 + 4 x173 + 4 x233 + 4 x293 - 2 x353 <= 0
 c129: 4 x54 + 4 x114 + 4 x174 + 4 x234 + 4 x294 - 2 x354 <= 0
 c130: 4 x55 + 4 x115 + 4 x175 + 4 x235 + 4 x295 - 2 x355 <= 0
 c131: 4 x56 + 4 x116 + 4 x176 + 4 x236 + 4 x296 - 2 x356 <= 0
 c132: 4 x57 + 4 x117 + 4 x177 + 4 x237 + 4 x297 - 2 x357 <= 0
 c133: 4 x58 + 4 x118 + 4 x178 + 4 x238 + 4 x298 - 2 x358 <= 0
 c134: 4 x59 + 4 x119 + 4 x179 + 4 x239 + 4 x299 - 2 x359 <= 0
 c135: 4 x60 + 4 x120 + 4 x180 + 4 x240 + 4 x300 - 2 x360 <= 0
Bounds
 0 <= x1 <= 1
 0 <= x2 <= 1
 0 <= x3 <= 1
 0 <= x4 <= 1
 0 <= x5 <= 1
 0 <= x6 <= 1
 0 <= x7 <= 1
 0 <= x8 <= 1
 0 <= x9 <= 1
 0 <= x10 <= 1
 0 <= x11 <= 1
 0 <= x12 <= 1
 0 <= x13 <= 1
 0 <= x14 <= 1
 0 <= x15 <= 1
 0 <= x16 <= 1
 0 <= x17 <= 1
 0 <= x18 <= 1
 0 <= x19 <= 1
 0 <= x20 <= 1
 0 <= x21 <= 1
 0 <= x22 <= 1
 0 <= x23 <= 1
 0 <= x24 <= 1
 0 <= x25 <= 1
 0 <= x26 <= 1
 0 <= x27 <= 1
 0 <= x28 <= 1
 0 <= x29 <= 1
 0 <= x30 <= 1
 0 <= x31 <= 1
 0 <= x32 <= 1
 0 <= x33 <= 1
 0 <= x34 <= 1
 0 <= x35 <= 1
 0 <= x36 <= 1
 0 <= x37 <= 1
 0 <= x38 <= 1
 0 <= x39 <= 1
 0 <= x40 <= 1
 0 <= x41 <= 1
 0 <= x42 <= 1
 0 <= x43 <= 1
 0 <= x44 <= 1
 0 <= x45 <= 1
 0 <= x46 <= 1
 0 <= x47 <= 1
 0 <= x48 <= 1
 0 <= x49 <= 1
 0 <= x50 <= 1
 0 <= x51 <= 1
 0 <= x52 <= 1
 0 <= x53 <= 1
 0 <= x54 <= 1
 0 <= x55 <= 1
 0 <= x56 <= 1
 0 <= x57 <= 1
 0 <= x58 <= 1
 0 <= x59 <= 1
 0 <= x60 <= 1
 0 <= x61 <= 1
 0 <= x62 <= 1
 0 <= x63 <= 1
 0 <= x64 <= 1
 0 <= x65 <= 1
 0 <= x66 <= 1
 0 <= x67 <= 1
 0 <= x68 <= 1
 0 <= x69 <= 1
 0 <= x70 <= 1
 0 <= x71 <= 1
 0 <= x72 <= 1
 0 <= x73 <= 1
 0 <= x74 <= 1
 0 <= x75 <= 1
 0 <= x76 <= 1
 0 <= x77 <= 1
 0 <= x78 <= 1
 0 <= x79 <= 1
 0 <= x80 <= 1
 0 <= x81 <= 1
 0 <= x82 <= 1
 0 <= x83 <= 1
 0 <= x84 <= 1
 0 <= x85 <= 1
 0 <= x86 <= 1
 0 <= x87 <= 1
 0 <= x88 <= 1
 0 <= x89 <= 1
 0 <= x90 <= 1
 0 <= x91 <= 1
 0 <= x92 <= 1
 0 <= x93 <= 1
 0 <= x94 <= 1
 0 <= x95 <= 1
 0 <= x96 <= 1
 0 <= x97 <= 1
 0 <= x98 <= 1
 0 <= x99 <= 1
 0 <= x100 <= 1
 0 <= x101 <= 1
 0 <= x102 <= 1
 0 <= x103 <= 1
 0 <= x104 <= 1
 0 <= x105 <= 1
 0 <= x106 <= 1
 0 <= x107 <= 1
 0 <= x108 <= 1
 0 <= x109 <= 1
 0 <= x110 <= 1
 0 <= x111 <= 1
 0 <= x112 <= 1
 0 <= x113 <= 1
 0 <= x114 <= 1
 0 <= x115 <= 1
 0 <= x116 <= 1
 0 <= x117 <= 1
 0 <= x118 <= 1
 0 <= x119 <= 1
 0 <= x120 <= 1
 0 <= x121 <= 1
 0 <= x122 <= 1
 0 <= x123 <= 1
 0 <= x124 <= 1
 0 <= x125 <= 1
 0 <= x126 <= 1
 0 <= x127 <= 1
 0 <= x128 <= 1
 0 <= x129 <= 1
 0 <= x130 <= 1
 0 <= x131 <= 1
 0 <= x132 <= 1
 0 <= x133 <= 1
 0 <= x134 <= 1
 0 <= x135 <= 1
 0 <= x136 <= 1
 0 <= x137 <= 1
 0 <= x138 <= 1
 0 <= x139 <= 1
 0 <= x140 <= 1
 0 <= x141 <= 1
 0 <= x142 <= 1
 0 <= x143 <= 1
 0 <= x144 <= 1
 0 <= x145 <= 1
 0 <= x146 <= 1
 0 <= x147 <= 1
 0 <= x148 <= 1
 0 <= x149 <= 1
 0 <= x150 <= 1
 0 <= x151 <= 1
 0 <= x152 <= 1
 0 <= x153 <= 1
 0 <= x154 <= 1
 0 <= x155 <= 1
 0 <= x156 <= 1
 0 <= x157 <= 1
 0 <= x158 <= 1
 0 <= x159 <= 1
 0 <= x160 <= 1
 0 <= x161 <= 1
 0 <= x162 <= 1
 0 <= x163 <= 1
 0 <= x164 <= 1
 0 <= x165 <= 1
 0 <= x166 <= 1
 0 <= x167 <= 1
 0 <= x168 <= 1
 0 <= x169 <= 1
 0 <= x170 <= 1
 0 <= x171 <= 1
 0 <= x172 <= 1
 0 <= x173 <= 1
 0 <= x174 <= 1
 0 <= x175 <= 1
 0 <= x176 <= 1
 0 <= x177 <= 1
 0 <= x178 <= 1
 0 <= x179 <= 1
 0 <= x180 <= 1
 0 <= x181 <= 1
 0 <= x182 <= 1
 0 <= x183 <= 1
 0 <= x184 <= 1
 0 <= x185 <= 1
 0 <= x186 <= 1
 0 <= x187 <= 1
 0 <= x188 <= 1
 0 <= x189 <= 1
 0 <= x190 <= 1
 0 <= x191 <= 1
 0 <= x192 <= 1
 0 <= x193 <= 1
 0 <= x194 <= 1
 0 <= x195 <= 1
 0 <= x196 <= 1
 0 <= x197 <= 1
 0 <= x198 <= 1
 0 <= x199 <= 1
 0 <= x200 <= 1
 0 <= x201 <= 1
 0 <= x202 <= 1
 0 <= x203 <= 1
 0 <= x204 <= 1
 0 <= x205 <= 1
 0 <= x206 <= 1
 0 <= x207 <= 1
 0 <= x208 <= 1
 0 <= x209 <= 1
 0 <= x210 <= 1
 0 <= x211 <= 1
 0 <= x212 <= 1
 0 <= x213 <= 1
 0 <= x214 <= 1
 0 <= x215 <= 1
 0 <= x216 <= 1
 0 <= x217 <= 1
 0 <= x218 <= 1
 0 <= x219 <= 1
 0 <= x220 <= 1
 0 <= x221 <= 1
 0 <= x222 <= 1
 0 <= x223 <= 1
 0 <= x224 <= 1
 0 <= x225 <= 1
 0 <= x226 <= 1
 0 <= x227 <= 1
 0 <= x228 <= 1
 0 <= x229 <= 1
 0 <= x230 <= 1
 0 <= x231 <= 1
 0 <= x232 <= 1
 0 <= x233 <= 1
 0 <= x234 <= 1
 0 <= x235 <= 1
 0 <= x236 <= 1
 0 <= x237 <= 1
 0 <= x238 <= 1
 0 <= x239 <= 1
 0 <= x240 <= 1
 0 <= x241 <= 1
 0 <= x242 <= 1
 0 <= x243 <= 1
 0 <= x244 <= 1
 0 <= x245 <= 1
 0 <= x246 <= 1
 0 <= x247 <= 1
 0 <= x248 <= 1
 0 <= x249 <= 1
 0 <= x250 <= 1
 0 <= x251 <= 1
 0 <= x252 <= 1
 0 <= x253 <= 1
 0 <= x254 <= 1
 0 <= x255 <= 1
 0 <= x256 <= 1
 0 <= x257 <= 1
 0 <= x258 <= 1
 0 <= x259 <= 1
 0 <= x260 <= 1
 0 <= x261 <= 1
 0 <= x262 <= 1
 0 <= x263 <= 1
 0 <= x264 <= 1
 0 <= x265 <= 1
 0 <= x266 <= 1
 0 <= x267 <= 1
 0 <= x268 <= 1
 0 <= x269 <= 1
 0 <= x270 <= 1
 0 <= x271 <= 1
 0 <= x272 <= 1
 0 <= x273 <= 1
 0 <= x274 <= 1
 0 <= x275 <= 1
 0 <= x276 <= 1
 0 <= x277 <= 1
 0 <= x278 <= 1
 0 <= x279 <= 1
 0 <= x280 <= 1
 0 <= x281 <= 1
 0 <= x282 <= 1
 0 <= x283 <= 1
 0 <= x284 <= 1
 0 <= x285 <= 1
 0 <= x286 <= 1
 0 <= x287 <= 1
 0 <= x288 <= 1
 0 <= x289 <= 1
 0 <= x290 <= 1
 0 <= x291 <= 1
 0 <= x292 <= 1
 0 <= x293 <= 1
 0 <= x294 <= 1
 0 <= x295 <= 1
 0 <= x296 <= 1
 0 <= x297 <= 1
 0 <= x298 <= 1
 0 <= x299 <= 1
 0 <= x300 <= 1
 0 <= x301 <= 1
 0 <= x302 <= 1
 0 <= x303 <= 1
 0 <= x304 <= 1
 0 <= x305 <= 1
 0 <= x306 <= 1
 0 <= x307 <= 1
 0 <= x308 <= 1
 0 <= x309 <= 1
 0 <= x310 <= 1
 0 <= x311 <= 1
 0 <= x312 <= 1
 0 <= x313 <= 1
 0 <= x314 <= 1
 0 <= x315 <= 1
 0 <= x316 <= 1
 0 <= x317 <= 1
 0 <= x318 <= 1
 0 <= x319 <= 1
 0 <= x320 <= 1
 0 <= x321 <= 1
 0 <= x322 <= 1
 0 <= x323 <= 1
 0 <= x324 <= 1
 0 <= x325 <= 1
 0 <= x326 <= 1
 0 <= x327 <= 1
 0 <= x328 <= 1
 0 <= x329 <= 1
 0 <= x330 <= 1
 0 <= x331 <= 1
 0 <= x332 <= 1
 0 <= x333 <= 1
 0 <= x334 <= 1
 0 <= x335 <= 1
 0 <= x336 <= 1
 0 <= x337 <= 1
 0 <= x338 <= 1
 0 <= x339 <= 1
 0 <= x340 <= 1
 0 <= x341 <= 1
 0 <= x342 <= 1
 0 <= x343 <= 1
 0 <= x344 <= 1
 0 <= x345 <= 1
 0 <= x346 <= 1
 0 <= x347 <= 1
 0 <= x348 <= 1
 0 <= x349 <= 1
 0 <= x350 <= 1
 0 <= x351 <= 1
 0 <= x352 <= 1
 0 <= x353 <= 1
 0 <= x354 <= 1
 0 <= x355 <= 1
 0 <= x356 <= 1
 0 <= x357 <= 1
 0 <= x358 <= 1
 0 <= x359 <= 1
 0 <= x360 <= 1
Binaries
 x301  x302  x303  x304  x305  x306  x307  x308  x309  x310  x311  x312  x313 
 x314  x315  x316  x317  x318  x319  x320  x321  x322  x323  x324  x325  x326 
 x327  x328  x329  x330  x331  x332  x333  x334  x335  x336  x337  x338  x339 
 x340  x341  x342  x343  x344  x345  x346  x347  x348  x349  x350  x351  x352 
 x353  x354  x355  x356  x357  x358  x359  x360 
End
